sat
( (i_init (- 1))
  (range_init 17)
  (c_0 (- 1))
  (c_1 (- 1))
  (c_2 17)
  (c_3 (- 8))
  (c_4 1)
  (c_5 1)
  (c_6 (- 2))
  (c_7 (- 2))
  (c_8 0)
  (c_9 (- 1))
  (c_10 (- 1))
  (c_11 1)
  (c_12 (- 1))
  (c_13 0)
  (c_14 0) )
